(set-logic QF_S)
(declare-fun var0 () Bool)
(declare-fun var1 () String)
(declare-fun var2 () Int)
(declare-fun var3 () String)
(declare-fun var4 () Int)
(declare-fun var5 () String)
(declare-fun var6 () Int)
(declare-fun var7 () String)
(declare-fun var8 () Int)
(assert (not var0))
(assert (str.in.re (str.at var1 var2) (re.+ (re.+ re.allchar))))
(assert (not (str.prefixof (str.substr var3 106 var4) (str.at var5 var6))))
(assert (str.in.re (str.at var7 var8) (re.+ re.allchar)))
(check-sat)